certificates/rado_a5_c274_N54.cnf
c Rad2 upper bound instance: x1 + 5*x2 - x3 = 274, interval [1,54]
p cnf 54 550
1 5 54 0
-1 -5 -54 0
2 6 54 0
-2 -6 -54 0
3 7 54 0
-3 -7 -54 0
4 8 54 0
-4 -8 -54 0
5 9 54 0
-5 -9 -54 0
1 10 53 0
-1 -10 -53 0
6 10 54 0
-6 -10 -54 0
2 11 53 0
-2 -11 -53 0
7 11 54 0
-7 -11 -54 0
3 12 53 0
-3 -12 -53 0
8 12 54 0
-8 -12 -54 0
4 13 53 0
-4 -13 -53 0
9 13 54 0
-9 -13 -54 0
5 14 53 0
-5 -14 -53 0
10 14 54 0
-10 -14 -54 0
1 15 52 0
-1 -15 -52 0
6 15 53 0
-6 -15 -53 0
11 15 54 0
-11 -15 -54 0
2 16 52 0
-2 -16 -52 0
7 16 53 0
-7 -16 -53 0
12 16 54 0
-12 -16 -54 0
3 17 52 0
-3 -17 -52 0
8 17 53 0
-8 -17 -53 0
13 17 54 0
-13 -17 -54 0
4 18 52 0
-4 -18 -52 0
9 18 53 0
-9 -18 -53 0
14 18 54 0
-14 -18 -54 0
5 19 52 0
-5 -19 -52 0
10 19 53 0
-10 -19 -53 0
15 19 54 0
-15 -19 -54 0
1 20 51 0
-1 -20 -51 0
6 20 52 0
-6 -20 -52 0
11 20 53 0
-11 -20 -53 0
16 20 54 0
-16 -20 -54 0
2 21 51 0
-2 -21 -51 0
7 21 52 0
-7 -21 -52 0
12 21 53 0
-12 -21 -53 0
17 21 54 0
-17 -21 -54 0
3 22 51 0
-3 -22 -51 0
8 22 52 0
-8 -22 -52 0
13 22 53 0
-13 -22 -53 0
18 22 54 0
-18 -22 -54 0
4 23 51 0
-4 -23 -51 0
9 23 52 0
-9 -23 -52 0
14 23 53 0
-14 -23 -53 0
19 23 54 0
-19 -23 -54 0
5 24 51 0
-5 -24 -51 0
10 24 52 0
-10 -24 -52 0
15 24 53 0
-15 -24 -53 0
20 24 54 0
-20 -24 -54 0
1 25 50 0
-1 -25 -50 0
6 25 51 0
-6 -25 -51 0
11 25 52 0
-11 -25 -52 0
16 25 53 0
-16 -25 -53 0
21 25 54 0
-21 -25 -54 0
2 26 50 0
-2 -26 -50 0
7 26 51 0
-7 -26 -51 0
12 26 52 0
-12 -26 -52 0
17 26 53 0
-17 -26 -53 0
22 26 54 0
-22 -26 -54 0
3 27 50 0
-3 -27 -50 0
8 27 51 0
-8 -27 -51 0
13 27 52 0
-13 -27 -52 0
18 27 53 0
-18 -27 -53 0
23 27 54 0
-23 -27 -54 0
4 28 50 0
-4 -28 -50 0
9 28 51 0
-9 -28 -51 0
14 28 52 0
-14 -28 -52 0
19 28 53 0
-19 -28 -53 0
24 28 54 0
-24 -28 -54 0
5 29 50 0
-5 -29 -50 0
10 29 51 0
-10 -29 -51 0
15 29 52 0
-15 -29 -52 0
20 29 53 0
-20 -29 -53 0
25 29 54 0
-25 -29 -54 0
1 30 49 0
-1 -30 -49 0
6 30 50 0
-6 -30 -50 0
11 30 51 0
-11 -30 -51 0
16 30 52 0
-16 -30 -52 0
21 30 53 0
-21 -30 -53 0
26 30 54 0
-26 -30 -54 0
2 31 49 0
-2 -31 -49 0
7 31 50 0
-7 -31 -50 0
12 31 51 0
-12 -31 -51 0
17 31 52 0
-17 -31 -52 0
22 31 53 0
-22 -31 -53 0
27 31 54 0
-27 -31 -54 0
3 32 49 0
-3 -32 -49 0
8 32 50 0
-8 -32 -50 0
13 32 51 0
-13 -32 -51 0
18 32 52 0
-18 -32 -52 0
23 32 53 0
-23 -32 -53 0
28 32 54 0
-28 -32 -54 0
4 33 49 0
-4 -33 -49 0
9 33 50 0
-9 -33 -50 0
14 33 51 0
-14 -33 -51 0
19 33 52 0
-19 -33 -52 0
24 33 53 0
-24 -33 -53 0
29 33 54 0
-29 -33 -54 0
5 34 49 0
-5 -34 -49 0
10 34 50 0
-10 -34 -50 0
15 34 51 0
-15 -34 -51 0
20 34 52 0
-20 -34 -52 0
25 34 53 0
-25 -34 -53 0
30 34 54 0
-30 -34 -54 0
1 35 48 0
-1 -35 -48 0
6 35 49 0
-6 -35 -49 0
11 35 50 0
-11 -35 -50 0
16 35 51 0
-16 -35 -51 0
21 35 52 0
-21 -35 -52 0
26 35 53 0
-26 -35 -53 0
31 35 54 0
-31 -35 -54 0
2 36 48 0
-2 -36 -48 0
7 36 49 0
-7 -36 -49 0
12 36 50 0
-12 -36 -50 0
17 36 51 0
-17 -36 -51 0
22 36 52 0
-22 -36 -52 0
27 36 53 0
-27 -36 -53 0
32 36 54 0
-32 -36 -54 0
3 37 48 0
-3 -37 -48 0
8 37 49 0
-8 -37 -49 0
13 37 50 0
-13 -37 -50 0
18 37 51 0
-18 -37 -51 0
23 37 52 0
-23 -37 -52 0
28 37 53 0
-28 -37 -53 0
33 37 54 0
-33 -37 -54 0
4 38 48 0
-4 -38 -48 0
9 38 49 0
-9 -38 -49 0
14 38 50 0
-14 -38 -50 0
19 38 51 0
-19 -38 -51 0
24 38 52 0
-24 -38 -52 0
29 38 53 0
-29 -38 -53 0
34 38 54 0
-34 -38 -54 0
5 39 48 0
-5 -39 -48 0
10 39 49 0
-10 -39 -49 0
15 39 50 0
-15 -39 -50 0
20 39 51 0
-20 -39 -51 0
25 39 52 0
-25 -39 -52 0
30 39 53 0
-30 -39 -53 0
35 39 54 0
-35 -39 -54 0
1 40 47 0
-1 -40 -47 0
6 40 48 0
-6 -40 -48 0
11 40 49 0
-11 -40 -49 0
16 40 50 0
-16 -40 -50 0
21 40 51 0
-21 -40 -51 0
26 40 52 0
-26 -40 -52 0
31 40 53 0
-31 -40 -53 0
36 40 54 0
-36 -40 -54 0
2 41 47 0
-2 -41 -47 0
7 41 48 0
-7 -41 -48 0
12 41 49 0
-12 -41 -49 0
17 41 50 0
-17 -41 -50 0
22 41 51 0
-22 -41 -51 0
27 41 52 0
-27 -41 -52 0
32 41 53 0
-32 -41 -53 0
37 41 54 0
-37 -41 -54 0
3 42 47 0
-3 -42 -47 0
8 42 48 0
-8 -42 -48 0
13 42 49 0
-13 -42 -49 0
18 42 50 0
-18 -42 -50 0
23 42 51 0
-23 -42 -51 0
28 42 52 0
-28 -42 -52 0
33 42 53 0
-33 -42 -53 0
38 42 54 0
-38 -42 -54 0
4 43 47 0
-4 -43 -47 0
9 43 48 0
-9 -43 -48 0
14 43 49 0
-14 -43 -49 0
19 43 50 0
-19 -43 -50 0
24 43 51 0
-24 -43 -51 0
29 43 52 0
-29 -43 -52 0
34 43 53 0
-34 -43 -53 0
39 43 54 0
-39 -43 -54 0
5 44 47 0
-5 -44 -47 0
10 44 48 0
-10 -44 -48 0
15 44 49 0
-15 -44 -49 0
20 44 50 0
-20 -44 -50 0
25 44 51 0
-25 -44 -51 0
30 44 52 0
-30 -44 -52 0
35 44 53 0
-35 -44 -53 0
40 44 54 0
-40 -44 -54 0
1 45 46 0
-1 -45 -46 0
6 45 47 0
-6 -45 -47 0
11 45 48 0
-11 -45 -48 0
16 45 49 0
-16 -45 -49 0
21 45 50 0
-21 -45 -50 0
26 45 51 0
-26 -45 -51 0
31 45 52 0
-31 -45 -52 0
36 45 53 0
-36 -45 -53 0
41 45 54 0
-41 -45 -54 0
2 46 0
-2 -46 0
7 46 47 0
-7 -46 -47 0
12 46 48 0
-12 -46 -48 0
17 46 49 0
-17 -46 -49 0
22 46 50 0
-22 -46 -50 0
27 46 51 0
-27 -46 -51 0
32 46 52 0
-32 -46 -52 0
37 46 53 0
-37 -46 -53 0
42 46 54 0
-42 -46 -54 0
3 46 47 0
-3 -46 -47 0
8 47 0
-8 -47 0
13 47 48 0
-13 -47 -48 0
18 47 49 0
-18 -47 -49 0
23 47 50 0
-23 -47 -50 0
28 47 51 0
-28 -47 -51 0
33 47 52 0
-33 -47 -52 0
38 47 53 0
-38 -47 -53 0
43 47 54 0
-43 -47 -54 0
4 46 48 0
-4 -46 -48 0
9 47 48 0
-9 -47 -48 0
14 48 0
-14 -48 0
19 48 49 0
-19 -48 -49 0
24 48 50 0
-24 -48 -50 0
29 48 51 0
-29 -48 -51 0
34 48 52 0
-34 -48 -52 0
39 48 53 0
-39 -48 -53 0
44 48 54 0
-44 -48 -54 0
5 46 49 0
-5 -46 -49 0
10 47 49 0
-10 -47 -49 0
15 48 49 0
-15 -48 -49 0
20 49 0
-20 -49 0
25 49 50 0
-25 -49 -50 0
30 49 51 0
-30 -49 -51 0
35 49 52 0
-35 -49 -52 0
40 49 53 0
-40 -49 -53 0
45 49 54 0
-45 -49 -54 0
1 45 50 0
-1 -45 -50 0
6 46 50 0
-6 -46 -50 0
11 47 50 0
-11 -47 -50 0
16 48 50 0
-16 -48 -50 0
21 49 50 0
-21 -49 -50 0
26 50 0
-26 -50 0
31 50 51 0
-31 -50 -51 0
36 50 52 0
-36 -50 -52 0
41 50 53 0
-41 -50 -53 0
46 50 54 0
-46 -50 -54 0
2 45 51 0
-2 -45 -51 0
7 46 51 0
-7 -46 -51 0
12 47 51 0
-12 -47 -51 0
17 48 51 0
-17 -48 -51 0
22 49 51 0
-22 -49 -51 0
27 50 51 0
-27 -50 -51 0
32 51 0
-32 -51 0
37 51 52 0
-37 -51 -52 0
42 51 53 0
-42 -51 -53 0
47 51 54 0
-47 -51 -54 0
3 45 52 0
-3 -45 -52 0
8 46 52 0
-8 -46 -52 0
13 47 52 0
-13 -47 -52 0
18 48 52 0
-18 -48 -52 0
23 49 52 0
-23 -49 -52 0
28 50 52 0
-28 -50 -52 0
33 51 52 0
-33 -51 -52 0
38 52 0
-38 -52 0
43 52 53 0
-43 -52 -53 0
48 52 54 0
-48 -52 -54 0
4 45 53 0
-4 -45 -53 0
9 46 53 0
-9 -46 -53 0
14 47 53 0
-14 -47 -53 0
19 48 53 0
-19 -48 -53 0
24 49 53 0
-24 -49 -53 0
29 50 53 0
-29 -50 -53 0
34 51 53 0
-34 -51 -53 0
39 52 53 0
-39 -52 -53 0
44 53 0
-44 -53 0
49 53 54 0
-49 -53 -54 0
5 45 54 0
-5 -45 -54 0
10 46 54 0
-10 -46 -54 0
15 47 54 0
-15 -47 -54 0
20 48 54 0
-20 -48 -54 0
25 49 54 0
-25 -49 -54 0
30 50 54 0
-30 -50 -54 0
35 51 54 0
-35 -51 -54 0
40 52 54 0
-40 -52 -54 0
45 53 54 0
-45 -53 -54 0
50 54 0
-50 -54 0
