certificates/rado_a5_c274_N54.drat
-54 0
50 0
-26 0
22 0
30 0
-46 0
-6 0
2 0
42 0
10 0
-18 0
-34 0
14 0
38 0
0
